clear
variable Nprint equal 1000 
variable temperature equal 305.0

units real
atom_style full

pair_style lj/cut/coul/long 14.0 14.0 
bond_style harmonic
angle_style hybrid harmonic cosine/squared
dihedral_style hybrid harmonic charmm
improper_style harmonic
special_bonds lj/coul 0.0 0.0 1.0 
kspace_style pppm 1.0e-4
neighbor 2.0 bin 

#read_restart ${restartfile}
read_data data.txt

include ../LammpsOostenbrink.txt

group water type 57 58
#group tracers molecule ${ID1} ${ID2} ${ID3} ${ID4} ${ID5} ${ID6} ${ID7} ${ID8}
group tracers molecule ${ID1} ${ID2} ${ID3} ${ID4} ${ID5} ${ID6} ${ID7} 
group allbuttracers subtract water tracers
group bilayer subtract all water

group t1 molecule ${ID1}
group t2 molecule ${ID2}
group t3 molecule ${ID3}
group t4 molecule ${ID4}
group t5 molecule ${ID5}
group t6 molecule ${ID6}
group t7 molecule ${ID7}
#group t8 molecule ${ID8}

reset_timestep 0
variable ke equal ke
variable enthalpy equal enthalpy
variable pe equal pe
variable step equal step
variable temp equal temp
variable press equal press
variable vol equal vol

variable lx equal lx
variable ly equal ly
variable lz equal lz

timestep 1.0

fix 11 all shake 0.0001 10 10000 b 53 a 55
fix 3 all print ${Nprint} "${step} ${pe} ${press} ${temp} ${lx} ${ly} ${lz}" file system.log screen no
fix 4 water npt temp ${temperature} ${temperature} 100.0 aniso 1.0 1.0 1000.0
fix 12 bilayer nvt temp ${temperature} ${temperature} 100.0 
fix 5 bilayer momentum 1 linear 1 1 1
fix 61 t1 recenter NULL NULL ${zt1} shift t1
fix 62 t2 recenter NULL NULL ${zt2} shift t2
fix 63 t3 recenter NULL NULL ${zt3} shift t3
fix 64 t4 recenter NULL NULL ${zt4} shift t4
fix 65 t5 recenter NULL NULL ${zt5} shift t5
fix 66 t6 recenter NULL NULL ${zt6} shift t6
fix 67 t7 recenter NULL NULL ${zt7} shift t7
#fix 68 t8 recenter NULL NULL ${zt8} shift t8
fix 71 t1 momentum 1 linear 0 0 1
fix 72 t2 momentum 1 linear 0 0 1
fix 73 t3 momentum 1 linear 0 0 1
fix 74 t4 momentum 1 linear 0 0 1
fix 75 t5 momentum 1 linear 0 0 1
fix 76 t6 momentum 1 linear 0 0 1
fix 77 t7 momentum 1 linear 0 0 1
#fix 78 t8 momentum 1 linear 0 0 1
thermo ${Nprint}

run 220000

write_restart ${restartfile}

