
variable Nprint equal 1000 
variable Nrun equal 10000 
variable NEqui equal 150000 # 300 ps
variable temperature equal 305.0

units real
atom_style full

pair_style lj/cut/coul/long 14.0 14.0 
bond_style harmonic
angle_style hybrid harmonic cosine/squared
dihedral_style hybrid harmonic charmm
improper_style harmonic
special_bonds lj/coul 0.0 0.0 1.0
kspace_style pppm 1.0e-4
neighbor 3.4 bin

read_data data.txt

include ../LammpsOostenbrink.txt
pair_modify mix geometric

write_restart restartfile
